out/3x5_in-2025_04_17-23_06_50/stage_2_bpp.param.solution
language ESSENCE' 1.0
letting assembler_layout be [[0, 0, 0], 
[0, 0, 0], 
[1, 0, 0], 
[0, 0, 0], 
[0, 0, 0]]
letting inserter_layout be [[0, 0, 0], 
[2, 2, 2], 
[0, 0, 0], 
[0, 0, 0], 
[0, 0, 0]]
letting positions be [7]
